
******************************************************************************
This program contains Ipopt, a library for large-scale nonlinear optimization.
 Ipopt is released as open source code under the Eclipse Public License (EPL).
         For more information visit http://projects.coin-or.org/Ipopt

This version of Ipopt was compiled from source code available at
    https://github.com/IDAES/Ipopt as part of the Institute for the Design of
    Advanced Energy Systems Process Systems Engineering Framework (IDAES PSE
    Framework) Copyright (c) 2018-2019. See https://github.com/IDAES/idaes-pse.

This version of Ipopt was compiled using HSL, a collection of Fortran codes
    for large-scale scientific computation.  All technical papers, sales and
    publicity material resulting from use of the HSL codes within IPOPT must
    contain the following acknowledgement:
        HSL, a collection of Fortran codes for large-scale scientific
        computation. See http://www.hsl.rl.ac.uk.
******************************************************************************

This is Ipopt version 3.13.2, running with linear solver ma27.

Number of nonzeros in equality constraint Jacobian...:      914
Number of nonzeros in inequality constraint Jacobian.:        0
Number of nonzeros in Lagrangian Hessian.............:      918

Total number of variables............................:      378
                     variables with only lower bounds:      108
                variables with lower and upper bounds:      216
                     variables with only upper bounds:        0
Total number of equality constraints.................:      376
Total number of inequality constraints...............:        0
        inequality constraints with only lower bounds:        0
   inequality constraints with lower and upper bounds:        0
        inequality constraints with only upper bounds:        0

iter    objective    inf_pr   inf_du lg(mu)  ||d||  lg(rg) alpha_du alpha_pr  ls
   0  0.0000000e+00 5.99e-01 1.42e-14  -1.0 0.00e+00    -  0.00e+00 0.00e+00   0
   1  3.7387183e-03 4.27e-01 2.16e+03  -1.0 7.90e+04    -  7.93e-01 6.81e-02h  1
   2  6.5542764e-03 4.22e-01 2.33e+03  -1.0 2.10e+05    -  4.35e-01 1.17e-02h  1
   3  2.5289311e+00 9.57e-01 7.22e+04  -1.0 2.27e+05    -  4.88e-01 4.64e-01h  1
   4  1.5689624e+01 2.31e-01 4.02e+03  -1.0 1.62e+05    -  3.79e-01 9.90e-01h  1
   5  1.7714656e+01 1.02e-01 5.72e+03  -1.0 1.67e+04    -  7.59e-01 9.90e-01h  1
   6  1.7850694e+01 7.89e-02 3.60e+04  -1.0 2.80e+04    -  3.19e-01 4.95e-01h  2
   7  1.8024100e+01 5.49e-02 2.16e+04  -1.0 2.92e+04    -  5.87e-01 4.95e-01h  2
   8  1.8305221e+01 3.70e-02 3.68e+05  -1.0 3.81e+04    -  9.43e-01 4.95e-01h  2
   9  1.8504113e+01 3.32e-02 1.13e+06  -1.0 9.05e+04    -  6.35e-01 1.24e-01h  4
iter    objective    inf_pr   inf_du lg(mu)  ||d||  lg(rg) alpha_du alpha_pr  ls
  10  1.8664668e+01 3.14e-02 2.09e+06  -1.0 1.32e+05    -  6.38e-01 6.19e-02h  5
  11  1.8807869e+01 3.05e-02 2.83e+06  -1.0 2.21e+05    -  4.48e-01 3.09e-02h  6
  12  1.8846966e+01 3.04e-02 3.08e+06  -1.0 7.76e+05    -  1.32e-01 2.33e-03h  8
  13  1.8866774e+01 3.04e-02 3.18e+06  -1.0 2.26e+06    -  5.44e-02 4.02e-04h  9
  14  2.1704307e+01 4.89e+00 3.18e+06  -1.0 1.59e+08    -  5.82e-04 5.82e-04s 13
  15  4.5711708e+01 3.17e+01 3.10e+06  -1.0 1.19e+07    -  2.55e-02 2.55e-02s 13
  16r 4.5711708e+01 3.17e+01 1.00e+03   1.5 0.00e+00  -4.0 0.00e+00 0.00e+00R  1
  17r 4.5711980e+01 4.27e+00 2.37e+03   1.5 1.76e+04    -  1.66e-02 1.78e-03f  1
  18r 4.5712280e+01 3.75e+00 6.78e+03   1.5 1.24e+03    -  2.96e-01 1.11e-02f  1
  19r 4.5713760e+01 2.59e+00 3.64e+03   1.5 2.80e+02    -  9.91e-01 1.52e-01f  1
iter    objective    inf_pr   inf_du lg(mu)  ||d||  lg(rg) alpha_du alpha_pr  ls
  20r 4.5718575e+01 1.51e+00 2.31e+03   1.5 1.72e+02    -  3.90e-01 4.15e-01f  1
  21  4.5714452e+01 1.49e+00 2.50e+01  -1.0 1.13e+05    -  8.21e-01 1.55e-02h  7
  22  4.5730274e+01 1.48e+00 4.99e+01  -1.0 1.36e+05    -  8.37e-01 7.73e-03h  8
  23  4.5733755e+01 1.48e+00 7.69e+01  -1.0 1.55e+05    -  8.84e-01 9.67e-04h 11
  24  4.5733916e+01 1.48e+00 1.04e+02  -1.0 1.25e+05    -  9.03e-01 2.42e-04h 13
  25  3.7557301e+01 8.92e-01 1.36e+02  -1.0 1.83e+05    -  9.66e-01 3.97e-01f  1
  26  2.5841225e+01 3.14e-01 8.03e+02  -1.0 1.58e+05    -  9.77e-01 9.90e-01h  1
  27  1.9563437e+01 1.77e-01 2.85e+03  -1.0 3.66e+05    -  9.90e-01 4.42e-01f  2
  28  1.8280581e+01 8.99e-02 6.00e+03  -1.0 1.29e+05    -  1.00e+00 4.95e-01h  2
  29  1.7977975e+01 2.27e-02 2.51e+02  -1.0 4.05e+04    -  1.00e+00 9.90e-01h  1
iter    objective    inf_pr   inf_du lg(mu)  ||d||  lg(rg) alpha_du alpha_pr  ls
  30  1.8078154e+01 5.19e-03 1.80e+04  -1.0 8.72e+03    -  1.00e+00 9.90e-01h  1
  31  1.8070178e+01 1.58e-05 1.80e+06  -1.0 7.58e+02    -  1.00e+00 9.90e-01h  1
  32  1.8070045e+01 1.59e-07 1.80e+08  -1.0 1.33e+01    -  1.00e+00 9.90e-01h  1
  33  1.8070044e+01 1.59e-09 1.80e+10  -1.0 1.33e-01    -  1.00e+00 9.90e-01h  1
In iteration 33, 6 Slacks too small, adjusting variable bounds
  34  1.8070044e+01 6.87e-11 1.80e+12  -1.0 1.33e-03    -  1.00e+00 9.90e-01h  1
In iteration 34, 21 Slacks too small, adjusting variable bounds
  35  1.8070044e+01 7.35e-11 2.45e+13  -1.0 1.33e-05    -  1.00e+00 9.90e-01h  1
  36  1.8070044e+01 2.36e-11 2.44e-04  -1.0 1.71e-07    -  1.00e+00 1.00e+00h  1
  37  1.8070043e+01 5.47e-11 2.46e+13  -9.0 2.31e+04    -  9.84e-01 3.29e-06f 19
  38  1.8070035e+01 2.13e-11 2.50e+13  -9.0 3.08e+04    -  9.87e-01 1.45e-05f 17
  39  1.8070033e+01 1.96e-11 2.50e+13  -9.0 3.45e+04    -  9.90e-01 3.71e-06f 19
iter    objective    inf_pr   inf_du lg(mu)  ||d||  lg(rg) alpha_du alpha_pr  ls
  40  1.8070031e+01 2.07e-11 2.50e+13  -9.0 3.66e+04    -  1.00e+00 3.75e-06f 19
  41  1.8070027e+01 3.23e-11 2.50e+13  -9.0 3.78e+04    -  1.00e+00 7.44e-06f 18
  42  1.7660180e+01 1.27e-01 1.06e+12  -9.0 3.85e+04    -  1.00e+00 9.58e-01f  1
  43  1.7650210e+01 4.33e-03 3.60e+10  -9.0 2.02e+03    -  1.00e+00 9.66e-01h  1
  44  1.7650062e+01 1.16e-06 4.27e-03  -9.0 6.63e+01    -  1.00e+00 1.00e+00h  1
  45  1.7650062e+01 1.39e-11 6.53e-08  -9.0 3.37e-03    -  1.00e+00 1.00e+00h  1

Number of Iterations....: 45

                                   (scaled)                 (unscaled)
Objective...............:   1.7650061921038031e+01    1.7650061921038031e+01
Dual infeasibility......:   6.5317865166093185e-08    6.5317865166093185e-08
Constraint violation....:   1.3941736654032866e-11    1.3941736654032866e-11
Complementarity.........:   1.1878269909731303e-09    1.1878269909731303e-09
Overall NLP error.......:   6.7222488537402360e-10    6.5317865166093185e-08


Number of objective function evaluations             = 238
Number of objective gradient evaluations             = 43
Number of equality constraint evaluations            = 238
Number of inequality constraint evaluations          = 0
Number of equality constraint Jacobian evaluations   = 47
Number of inequality constraint Jacobian evaluations = 0
Number of Lagrangian Hessian evaluations             = 45
Total CPU secs in IPOPT (w/o function evaluations)   =      0.093
Total CPU secs in NLP function evaluations           =      1.968

EXIT: Optimal Solution Found.
